HFSDDW
15	6	3
0	49	1	67	2	20
0	84	1	38	2	83
0	53	1	75	2	59
0	97	1	31	2	36
0	32	1	32	2	65
0	91	1	29	2	86
0	86	1	82	2	78
0	62	1	35	2	3
0	53	1	92	2	90
0	44	1	40	2	89
0	70	1	98	2	89
0	18	1	19	2	97
0	64	1	12	2	51
0	89	1	2	2	84
0	93	1	84	2	17
LBCmax: 543
RELDUE
-1	274	9	1
-1	304	4	7
-1	248	3	3
-1	87	5	2
-1	379	2	7
-1	55	3	2
-1	83	4	9
-1	249	8	9
-1	56	7	5
-1	148	8	8
-1	337	2	3
-1	158	4	4
-1	111	9	6
-1	154	4	8
-1	202	8	3
DDW
236	312
274	334
206	290
85	89
303	455
45	65
75	91
237	261
49	63
123	173
320	354
137	179
100	122
140	168
172	232
